
  32    4
  10   10   10   10

   0   0   0   0   0   1 2 
  10   1   0   1   1   2 4 3 
   6   5   1   4   0   1 5 
   5   0   5   3   5   1 5 
   3   0   6   3   4   2 7 6 
   3   6   5   3   0   1 8 
   7   3   2   0   5   1 8 
   2   4   2   0   4   1 9 
  10   6   2   0   4   1 10 
   4   3   4   0   5   2 12 11 
  10   5   4   0   5   1 13 
   4   0   1   3   3   1 13 
   4   2   6   2   0   1 14 
   9   3   3   3   0   1 15 
   7   5   3   3   0   1 16 
  10   3   2   1   0   1 17 
  10   5   5   9   0   1 18 
   5   3   0   3   4   2 21 19 
   6   0   7   4   3   1 20 
   3   4   0   3   6   1 22 
   5   0   4   5   3   1 22 
   7   3   0   2   2   2 25 23 
   2   5   4   5   0   1 24 
  10   5   6   0   4   1 26 
   7   4   0   6   7   1 26 
   3   1   2   0   3   1 27 
   4   0   8   7   5   1 28 
  10   5   7   5   0   2 30 29 
   1   5   0   2   5   1 31 
   2   0   3   9   3   1 31 
   4   6   0   6   3   1 32
   0   0   0   0   0   0 
